1, 30, 23, 25, 44, 45, 46, 47, 37, 26, 1
1, 17, 20, 36, 31, 32, 24, 29, 28, 27, 21, 22, 53, 52, 15, 16, 1
1, 19, 8, 13, 10, 11, 12, 9, 5, 6, 4, 7, 3, 2, 18, 14, 1
1, 33, 38, 40, 41, 49, 48, 50, 51, 43, 42, 39, 35, 34, 1
